c
c
c
c
c
13 91
0 0 -1
0 1 15
0 2 9
0 3 3
0 4 2
0 5 16
0 6 1
0 7 7
0 8 5
0 9 12
0 10 1
0 11 1
0 12 5
1 1 -1
1 2 20
1 3 28
1 4 5
1 5 30
1 6 23
1 7 16
1 8 14
1 9 23
1 10 17
1 11 13
1 12 4
2 2 -1
2 3 28
2 4 24
2 5 1
2 6 8
2 7 27
2 8 17
2 9 20
2 10 19
2 11 12
2 12 8
3 3 -1
3 4 11
3 5 14
3 6 29
3 7 25
3 8 1
3 9 18
3 10 19
3 11 1
3 12 5
4 4 -1
4 5 21
4 6 10
4 7 16
4 8 19
4 9 22
4 10 12
4 11 20
4 12 12
5 5 -1
5 6 18
5 7 3
5 8 25
5 9 6
5 10 2
5 11 14
5 12 6
6 6 -1
6 7 7
6 8 13
6 9 18
6 10 19
6 11 23
6 12 8
7 7 -1
7 8 14
7 9 6
7 10 30
7 11 28
7 12 27
8 8 -1
8 9 8
8 10 16
8 11 24
8 12 21
9 9 -1
9 10 17
9 11 22
9 12 28
10 10 -1
10 11 8
10 12 19
11 11 -1
11 12 20
12 12 -1
